\ Model _copy
\ LP format - for model browsing. Use MPS format to capture full model detail.
\ Signature: 0x2ae17ac855ee0e10
Minimize
 
Subject To
 e_link[경부고속철도2_7,e78r]: - 48 x[1216,18] - 49 x[1217,18]
   - 50 x[1218,18] - 51 x[1219,18] - 52 x[1220,18] - 53 x[1221,18]
   - 54 x[1222,18] - 55 x[1223,18] + e[경부고속철도2_7,e78r] = 0
 e_link[경부고속철도2_10,e78r]: - 48 x[1216,21] - 49 x[1217,21]
   - 50 x[1218,21] - 51 x[1219,21] - 52 x[1220,21] - 53 x[1221,21]
   - 54 x[1222,21] - 55 x[1223,21] + e[경부고속철도2_10,e78r] = 0
 e_link[경부고속철도2_11,e78r]: - 48 x[1216,22] - 49 x[1217,22]
   - 50 x[1218,22] - 51 x[1219,22] - 52 x[1220,22] - 53 x[1221,22]
   - 54 x[1222,22] - 55 x[1223,22] + e[경부고속철도2_11,e78r] = 0
 e_link[경부선1_2,e78r]: - 48 x[1216,24] - 49 x[1217,24] - 50 x[1218,24]
   - 51 x[1219,24] - 52 x[1220,24] - 53 x[1221,24] - 54 x[1222,24]
   - 55 x[1223,24] + e[경부선1_2,e78r] = 0
 cap_e78r_55: x[1218,0] + x[1218,1] + x[1218,2] + x[1218,3] + x[1218,4]
   + x[1218,5] + x[1218,6] + x[1218,7] + x[1218,8] + x[1218,9] + x[1218,10]
   + x[1218,11] + x[1218,12] + x[1218,13] + x[1218,14] + x[1218,15]
   + x[1218,16] + x[1218,17] + x[1218,18] + x[1218,19] + x[1218,20]
   + x[1218,21] + x[1218,22] + x[1218,23] + x[1218,24] + x[1218,25]
   + x[1218,26] + x[1218,27] + x[1218,28] + x[1218,29] + x[1218,30]
   + x[1218,31] + x[1218,32] + x[1218,33] + x[1218,34] + x[1218,35]
   + x[1218,36] + x[1218,37] + x[1218,38] + x[1218,39] + x[1218,40]
   + x[1218,41] + x[1218,42] + x[1218,43] + x[1218,44] + x[1218,45]
   + x[1218,46] + x[1218,47] + x[1218,48] + x[1218,49] + x[1218,50]
   + x[1218,51] + x[1218,52] + x[1218,53] + x[1218,54] + x[1218,55]
   + x[1218,56] + x[1218,57] + x[1218,58] + x[1218,59] + x[1218,60]
   + x[1218,61] + x[1218,62] + x[1218,63] + x[1218,64] + x[1218,65]
   + x[1218,66] + x[1218,67] + x[1218,68] + x[1218,69] + x[1218,70]
   + x[1218,71] + x[1218,72] + x[1218,73] + x[1218,74] + x[1218,75]
   + x[1218,76] + x[1218,77] + x[1218,78] + x[1218,79] + x[1218,80]
   + x[1218,81] + x[1218,82] + x[1218,83] + x[1218,84] + x[1218,85]
   + x[1218,86] + x[1218,87] + x[1218,88] + x[1218,89] + x[1218,90]
   + x[1218,91] + x[1218,92] + x[1218,93] + x[1218,94] + x[1218,95]
   + x[1218,96] + x[1218,97] + x[1218,98] + x[1218,99] + x[1218,100]
   + x[1218,101] + x[1218,102] + x[1218,103] + x[1218,104] + x[1219,0]
   + x[1219,1] + x[1219,2] + x[1219,3] + x[1219,4] + x[1219,5] + x[1219,6]
   + x[1219,7] + x[1219,8] + x[1219,9] + x[1219,10] + x[1219,11]
   + x[1219,12] + x[1219,13] + x[1219,14] + x[1219,15] + x[1219,16]
   + x[1219,17] + x[1219,18] + x[1219,19] + x[1219,20] + x[1219,21]
   + x[1219,22] + x[1219,23] + x[1219,24] + x[1219,25] + x[1219,26]
   + x[1219,27] + x[1219,28] + x[1219,29] + x[1219,30] + x[1219,31]
   + x[1219,32] + x[1219,33] + x[1219,34] + x[1219,35] + x[1219,36]
   + x[1219,37] + x[1219,38] + x[1219,39] + x[1219,40] + x[1219,41]
   + x[1219,42] + x[1219,43] + x[1219,44] + x[1219,45] + x[1219,46]
   + x[1219,47] + x[1219,48] + x[1219,49] + x[1219,50] + x[1219,51]
   + x[1219,52] + x[1219,53] + x[1219,54] + x[1219,55] + x[1219,56]
   + x[1219,57] + x[1219,58] + x[1219,59] + x[1219,60] + x[1219,61]
   + x[1219,62] + x[1219,63] + x[1219,64] + x[1219,65] + x[1219,66]
   + x[1219,67] + x[1219,68] + x[1219,69] + x[1219,70] + x[1219,71]
   + x[1219,72] + x[1219,73] + x[1219,74] + x[1219,75] + x[1219,76]
   + x[1219,77] + x[1219,78] + x[1219,79] + x[1219,80] + x[1219,81]
   + x[1219,82] + x[1219,83] + x[1219,84] + x[1219,85] + x[1219,86]
   + x[1219,87] + x[1219,88] + x[1219,89] + x[1219,90] + x[1219,91]
   + x[1219,92] + x[1219,93] + x[1219,94] + x[1219,95] + x[1219,96]
   + x[1219,97] + x[1219,98] + x[1219,99] + x[1219,100] + x[1219,101]
   + x[1219,102] + x[1219,103] + x[1219,104] + x[1220,0] + x[1220,1]
   + x[1220,2] + x[1220,3] + x[1220,4] + x[1220,5] + x[1220,6] + x[1220,7]
   + x[1220,8] + x[1220,9] + x[1220,10] + x[1220,11] + x[1220,12]
   + x[1220,13] + x[1220,14] + x[1220,15] + x[1220,16] + x[1220,17]
   + x[1220,18] + x[1220,19] + x[1220,20] + x[1220,21] + x[1220,22]
   + x[1220,23] + x[1220,24] + x[1220,25] + x[1220,26] + x[1220,27]
   + x[1220,28] + x[1220,29] + x[1220,30] + x[1220,31] + x[1220,32]
   + x[1220,33] + x[1220,34] + x[1220,35] + x[1220,36] + x[1220,37]
   + x[1220,38] + x[1220,39] + x[1220,40] + x[1220,41] + x[1220,42]
   + x[1220,43] + x[1220,44] + x[1220,45] + x[1220,46] + x[1220,47]
   + x[1220,48] + x[1220,49] + x[1220,50] + x[1220,51] + x[1220,52]
   + x[1220,53] + x[1220,54] + x[1220,55] + x[1220,56] + x[1220,57]
   + x[1220,58] + x[1220,59] + x[1220,60] + x[1220,61] + x[1220,62]
   + x[1220,63] + x[1220,64] + x[1220,65] + x[1220,66] + x[1220,67]
   + x[1220,68] + x[1220,69] + x[1220,70] + x[1220,71] + x[1220,72]
   + x[1220,73] + x[1220,74] + x[1220,75] + x[1220,76] + x[1220,77]
   + x[1220,78] + x[1220,79] + x[1220,80] + x[1220,81] + x[1220,82]
   + x[1220,83] + x[1220,84] + x[1220,85] + x[1220,86] + x[1220,87]
   + x[1220,88] + x[1220,89] + x[1220,90] + x[1220,91] + x[1220,92]
   + x[1220,93] + x[1220,94] + x[1220,95] + x[1220,96] + x[1220,97]
   + x[1220,98] + x[1220,99] + x[1220,100] + x[1220,101] + x[1220,102]
   + x[1220,103] + x[1220,104] + x[1221,0] + x[1221,1] + x[1221,2]
   + x[1221,3] + x[1221,4] + x[1221,5] + x[1221,6] + x[1221,7] + x[1221,8]
   + x[1221,9] + x[1221,10] + x[1221,11] + x[1221,12] + x[1221,13]
   + x[1221,14] + x[1221,15] + x[1221,16] + x[1221,17] + x[1221,18]
   + x[1221,19] + x[1221,20] + x[1221,21] + x[1221,22] + x[1221,23]
   + x[1221,24] + x[1221,25] + x[1221,26] + x[1221,27] + x[1221,28]
   + x[1221,29] + x[1221,30] + x[1221,31] + x[1221,32] + x[1221,33]
   + x[1221,34] + x[1221,35] + x[1221,36] + x[1221,37] + x[1221,38]
   + x[1221,39] + x[1221,40] + x[1221,41] + x[1221,42] + x[1221,43]
   + x[1221,44] + x[1221,45] + x[1221,46] + x[1221,47] + x[1221,48]
   + x[1221,49] + x[1221,50] + x[1221,51] + x[1221,52] + x[1221,53]
   + x[1221,54] + x[1221,55] + x[1221,56] + x[1221,57] + x[1221,58]
   + x[1221,59] + x[1221,60] + x[1221,61] + x[1221,62] + x[1221,63]
   + x[1221,64] + x[1221,65] + x[1221,66] + x[1221,67] + x[1221,68]
   + x[1221,69] + x[1221,70] + x[1221,71] + x[1221,72] + x[1221,73]
   + x[1221,74] + x[1221,75] + x[1221,76] + x[1221,77] + x[1221,78]
   + x[1221,79] + x[1221,80] + x[1221,81] + x[1221,82] + x[1221,83]
   + x[1221,84] + x[1221,85] + x[1221,86] + x[1221,87] + x[1221,88]
   + x[1221,89] + x[1221,90] + x[1221,91] + x[1221,92] + x[1221,93]
   + x[1221,94] + x[1221,95] + x[1221,96] + x[1221,97] + x[1221,98]
   + x[1221,99] + x[1221,100] + x[1221,101] + x[1221,102] + x[1221,103]
   + x[1221,104] + x[1222,0] + x[1222,1] + x[1222,2] + x[1222,3]
   + x[1222,4] + x[1222,5] + x[1222,6] + x[1222,7] + x[1222,8] + x[1222,9]
   + x[1222,10] + x[1222,11] + x[1222,12] + x[1222,13] + x[1222,14]
   + x[1222,15] + x[1222,16] + x[1222,17] + x[1222,18] + x[1222,19]
   + x[1222,20] + x[1222,21] + x[1222,22] + x[1222,23] + x[1222,24]
   + x[1222,25] + x[1222,26] + x[1222,27] + x[1222,28] + x[1222,29]
   + x[1222,30] + x[1222,31] + x[1222,32] + x[1222,33] + x[1222,34]
   + x[1222,35] + x[1222,36] + x[1222,37] + x[1222,38] + x[1222,39]
   + x[1222,40] + x[1222,41] + x[1222,42] + x[1222,43] + x[1222,44]
   + x[1222,45] + x[1222,46] + x[1222,47] + x[1222,48] + x[1222,49]
   + x[1222,50] + x[1222,51] + x[1222,52] + x[1222,53] + x[1222,54]
   + x[1222,55] + x[1222,56] + x[1222,57] + x[1222,58] + x[1222,59]
   + x[1222,60] + x[1222,61] + x[1222,62] + x[1222,63] + x[1222,64]
   + x[1222,65] + x[1222,66] + x[1222,67] + x[1222,68] + x[1222,69]
   + x[1222,70] + x[1222,71] + x[1222,72] + x[1222,73] + x[1222,74]
   + x[1222,75] + x[1222,76] + x[1222,77] + x[1222,78] + x[1222,79]
   + x[1222,80] + x[1222,81] + x[1222,82] + x[1222,83] + x[1222,84]
   + x[1222,85] + x[1222,86] + x[1222,87] + x[1222,88] + x[1222,89]
   + x[1222,90] + x[1222,91] + x[1222,92] + x[1222,93] + x[1222,94]
   + x[1222,95] + x[1222,96] + x[1222,97] + x[1222,98] + x[1222,99]
   + x[1222,100] + x[1222,101] + x[1222,102] + x[1222,103] + x[1222,104]
   + x[1223,0] + x[1223,1] + x[1223,2] + x[1223,3] + x[1223,4] + x[1223,5]
   + x[1223,6] + x[1223,7] + x[1223,8] + x[1223,9] + x[1223,10]
   + x[1223,11] + x[1223,12] + x[1223,13] + x[1223,14] + x[1223,15]
   + x[1223,16] + x[1223,17] + x[1223,18] + x[1223,19] + x[1223,20]
   + x[1223,21] + x[1223,22] + x[1223,23] + x[1223,24] + x[1223,25]
   + x[1223,26] + x[1223,27] + x[1223,28] + x[1223,29] + x[1223,30]
   + x[1223,31] + x[1223,32] + x[1223,33] + x[1223,34] + x[1223,35]
   + x[1223,36] + x[1223,37] + x[1223,38] + x[1223,39] + x[1223,40]
   + x[1223,41] + x[1223,42] + x[1223,43] + x[1223,44] + x[1223,45]
   + x[1223,46] + x[1223,47] + x[1223,48] + x[1223,49] + x[1223,50]
   + x[1223,51] + x[1223,52] + x[1223,53] + x[1223,54] + x[1223,55]
   + x[1223,56] + x[1223,57] + x[1223,58] + x[1223,59] + x[1223,60]
   + x[1223,61] + x[1223,62] + x[1223,63] + x[1223,64] + x[1223,65]
   + x[1223,66] + x[1223,67] + x[1223,68] + x[1223,69] + x[1223,70]
   + x[1223,71] + x[1223,72] + x[1223,73] + x[1223,74] + x[1223,75]
   + x[1223,76] + x[1223,77] + x[1223,78] + x[1223,79] + x[1223,80]
   + x[1223,81] + x[1223,82] + x[1223,83] + x[1223,84] + x[1223,85]
   + x[1223,86] + x[1223,87] + x[1223,88] + x[1223,89] + x[1223,90]
   + x[1223,91] + x[1223,92] + x[1223,93] + x[1223,94] + x[1223,95]
   + x[1223,96] + x[1223,97] + x[1223,98] + x[1223,99] + x[1223,100]
   + x[1223,101] + x[1223,102] + x[1223,103] + x[1223,104] <= 3
Bounds
 x[1216,18] = 0
 x[1216,21] = 0
 x[1216,22] = 0
 x[1216,24] = 0
 x[1217,18] = 0
 x[1217,21] = 0
 x[1217,22] = 0
 x[1217,24] = 0
 e[경부고속철도2_7,e78r] >= 48
 e[경부고속철도2_10,e78r] >= 48
 e[경부고속철도2_11,e78r] >= 48
 e[경부선1_2,e78r] >= 48
Binaries
 x[1216,18] x[1216,21] x[1216,22] x[1216,24] x[1217,18] x[1217,21]
 x[1217,22] x[1217,24] x[1218,0] x[1218,1] x[1218,2] x[1218,3] x[1218,4]
 x[1218,5] x[1218,6] x[1218,7] x[1218,8] x[1218,9] x[1218,10] x[1218,11]
 x[1218,12] x[1218,13] x[1218,14] x[1218,15] x[1218,16] x[1218,17]
 x[1218,18] x[1218,19] x[1218,20] x[1218,21] x[1218,22] x[1218,23]
 x[1218,24] x[1218,25] x[1218,26] x[1218,27] x[1218,28] x[1218,29]
 x[1218,30] x[1218,31] x[1218,32] x[1218,33] x[1218,34] x[1218,35]
 x[1218,36] x[1218,37] x[1218,38] x[1218,39] x[1218,40] x[1218,41]
 x[1218,42] x[1218,43] x[1218,44] x[1218,45] x[1218,46] x[1218,47]
 x[1218,48] x[1218,49] x[1218,50] x[1218,51] x[1218,52] x[1218,53]
 x[1218,54] x[1218,55] x[1218,56] x[1218,57] x[1218,58] x[1218,59]
 x[1218,60] x[1218,61] x[1218,62] x[1218,63] x[1218,64] x[1218,65]
 x[1218,66] x[1218,67] x[1218,68] x[1218,69] x[1218,70] x[1218,71]
 x[1218,72] x[1218,73] x[1218,74] x[1218,75] x[1218,76] x[1218,77]
 x[1218,78] x[1218,79] x[1218,80] x[1218,81] x[1218,82] x[1218,83]
 x[1218,84] x[1218,85] x[1218,86] x[1218,87] x[1218,88] x[1218,89]
 x[1218,90] x[1218,91] x[1218,92] x[1218,93] x[1218,94] x[1218,95]
 x[1218,96] x[1218,97] x[1218,98] x[1218,99] x[1218,100] x[1218,101]
 x[1218,102] x[1218,103] x[1218,104] x[1219,0] x[1219,1] x[1219,2]
 x[1219,3] x[1219,4] x[1219,5] x[1219,6] x[1219,7] x[1219,8] x[1219,9]
 x[1219,10] x[1219,11] x[1219,12] x[1219,13] x[1219,14] x[1219,15]
 x[1219,16] x[1219,17] x[1219,18] x[1219,19] x[1219,20] x[1219,21]
 x[1219,22] x[1219,23] x[1219,24] x[1219,25] x[1219,26] x[1219,27]
 x[1219,28] x[1219,29] x[1219,30] x[1219,31] x[1219,32] x[1219,33]
 x[1219,34] x[1219,35] x[1219,36] x[1219,37] x[1219,38] x[1219,39]
 x[1219,40] x[1219,41] x[1219,42] x[1219,43] x[1219,44] x[1219,45]
 x[1219,46] x[1219,47] x[1219,48] x[1219,49] x[1219,50] x[1219,51]
 x[1219,52] x[1219,53] x[1219,54] x[1219,55] x[1219,56] x[1219,57]
 x[1219,58] x[1219,59] x[1219,60] x[1219,61] x[1219,62] x[1219,63]
 x[1219,64] x[1219,65] x[1219,66] x[1219,67] x[1219,68] x[1219,69]
 x[1219,70] x[1219,71] x[1219,72] x[1219,73] x[1219,74] x[1219,75]
 x[1219,76] x[1219,77] x[1219,78] x[1219,79] x[1219,80] x[1219,81]
 x[1219,82] x[1219,83] x[1219,84] x[1219,85] x[1219,86] x[1219,87]
 x[1219,88] x[1219,89] x[1219,90] x[1219,91] x[1219,92] x[1219,93]
 x[1219,94] x[1219,95] x[1219,96] x[1219,97] x[1219,98] x[1219,99]
 x[1219,100] x[1219,101] x[1219,102] x[1219,103] x[1219,104] x[1220,0]
 x[1220,1] x[1220,2] x[1220,3] x[1220,4] x[1220,5] x[1220,6] x[1220,7]
 x[1220,8] x[1220,9] x[1220,10] x[1220,11] x[1220,12] x[1220,13] x[1220,14]
 x[1220,15] x[1220,16] x[1220,17] x[1220,18] x[1220,19] x[1220,20]
 x[1220,21] x[1220,22] x[1220,23] x[1220,24] x[1220,25] x[1220,26]
 x[1220,27] x[1220,28] x[1220,29] x[1220,30] x[1220,31] x[1220,32]
 x[1220,33] x[1220,34] x[1220,35] x[1220,36] x[1220,37] x[1220,38]
 x[1220,39] x[1220,40] x[1220,41] x[1220,42] x[1220,43] x[1220,44]
 x[1220,45] x[1220,46] x[1220,47] x[1220,48] x[1220,49] x[1220,50]
 x[1220,51] x[1220,52] x[1220,53] x[1220,54] x[1220,55] x[1220,56]
 x[1220,57] x[1220,58] x[1220,59] x[1220,60] x[1220,61] x[1220,62]
 x[1220,63] x[1220,64] x[1220,65] x[1220,66] x[1220,67] x[1220,68]
 x[1220,69] x[1220,70] x[1220,71] x[1220,72] x[1220,73] x[1220,74]
 x[1220,75] x[1220,76] x[1220,77] x[1220,78] x[1220,79] x[1220,80]
 x[1220,81] x[1220,82] x[1220,83] x[1220,84] x[1220,85] x[1220,86]
 x[1220,87] x[1220,88] x[1220,89] x[1220,90] x[1220,91] x[1220,92]
 x[1220,93] x[1220,94] x[1220,95] x[1220,96] x[1220,97] x[1220,98]
 x[1220,99] x[1220,100] x[1220,101] x[1220,102] x[1220,103] x[1220,104]
 x[1221,0] x[1221,1] x[1221,2] x[1221,3] x[1221,4] x[1221,5] x[1221,6]
 x[1221,7] x[1221,8] x[1221,9] x[1221,10] x[1221,11] x[1221,12] x[1221,13]
 x[1221,14] x[1221,15] x[1221,16] x[1221,17] x[1221,18] x[1221,19]
 x[1221,20] x[1221,21] x[1221,22] x[1221,23] x[1221,24] x[1221,25]
 x[1221,26] x[1221,27] x[1221,28] x[1221,29] x[1221,30] x[1221,31]
 x[1221,32] x[1221,33] x[1221,34] x[1221,35] x[1221,36] x[1221,37]
 x[1221,38] x[1221,39] x[1221,40] x[1221,41] x[1221,42] x[1221,43]
 x[1221,44] x[1221,45] x[1221,46] x[1221,47] x[1221,48] x[1221,49]
 x[1221,50] x[1221,51] x[1221,52] x[1221,53] x[1221,54] x[1221,55]
 x[1221,56] x[1221,57] x[1221,58] x[1221,59] x[1221,60] x[1221,61]
 x[1221,62] x[1221,63] x[1221,64] x[1221,65] x[1221,66] x[1221,67]
 x[1221,68] x[1221,69] x[1221,70] x[1221,71] x[1221,72] x[1221,73]
 x[1221,74] x[1221,75] x[1221,76] x[1221,77] x[1221,78] x[1221,79]
 x[1221,80] x[1221,81] x[1221,82] x[1221,83] x[1221,84] x[1221,85]
 x[1221,86] x[1221,87] x[1221,88] x[1221,89] x[1221,90] x[1221,91]
 x[1221,92] x[1221,93] x[1221,94] x[1221,95] x[1221,96] x[1221,97]
 x[1221,98] x[1221,99] x[1221,100] x[1221,101] x[1221,102] x[1221,103]
 x[1221,104] x[1222,0] x[1222,1] x[1222,2] x[1222,3] x[1222,4] x[1222,5]
 x[1222,6] x[1222,7] x[1222,8] x[1222,9] x[1222,10] x[1222,11] x[1222,12]
 x[1222,13] x[1222,14] x[1222,15] x[1222,16] x[1222,17] x[1222,18]
 x[1222,19] x[1222,20] x[1222,21] x[1222,22] x[1222,23] x[1222,24]
 x[1222,25] x[1222,26] x[1222,27] x[1222,28] x[1222,29] x[1222,30]
 x[1222,31] x[1222,32] x[1222,33] x[1222,34] x[1222,35] x[1222,36]
 x[1222,37] x[1222,38] x[1222,39] x[1222,40] x[1222,41] x[1222,42]
 x[1222,43] x[1222,44] x[1222,45] x[1222,46] x[1222,47] x[1222,48]
 x[1222,49] x[1222,50] x[1222,51] x[1222,52] x[1222,53] x[1222,54]
 x[1222,55] x[1222,56] x[1222,57] x[1222,58] x[1222,59] x[1222,60]
 x[1222,61] x[1222,62] x[1222,63] x[1222,64] x[1222,65] x[1222,66]
 x[1222,67] x[1222,68] x[1222,69] x[1222,70] x[1222,71] x[1222,72]
 x[1222,73] x[1222,74] x[1222,75] x[1222,76] x[1222,77] x[1222,78]
 x[1222,79] x[1222,80] x[1222,81] x[1222,82] x[1222,83] x[1222,84]
 x[1222,85] x[1222,86] x[1222,87] x[1222,88] x[1222,89] x[1222,90]
 x[1222,91] x[1222,92] x[1222,93] x[1222,94] x[1222,95] x[1222,96]
 x[1222,97] x[1222,98] x[1222,99] x[1222,100] x[1222,101] x[1222,102]
 x[1222,103] x[1222,104] x[1223,0] x[1223,1] x[1223,2] x[1223,3] x[1223,4]
 x[1223,5] x[1223,6] x[1223,7] x[1223,8] x[1223,9] x[1223,10] x[1223,11]
 x[1223,12] x[1223,13] x[1223,14] x[1223,15] x[1223,16] x[1223,17]
 x[1223,18] x[1223,19] x[1223,20] x[1223,21] x[1223,22] x[1223,23]
 x[1223,24] x[1223,25] x[1223,26] x[1223,27] x[1223,28] x[1223,29]
 x[1223,30] x[1223,31] x[1223,32] x[1223,33] x[1223,34] x[1223,35]
 x[1223,36] x[1223,37] x[1223,38] x[1223,39] x[1223,40] x[1223,41]
 x[1223,42] x[1223,43] x[1223,44] x[1223,45] x[1223,46] x[1223,47]
 x[1223,48] x[1223,49] x[1223,50] x[1223,51] x[1223,52] x[1223,53]
 x[1223,54] x[1223,55] x[1223,56] x[1223,57] x[1223,58] x[1223,59]
 x[1223,60] x[1223,61] x[1223,62] x[1223,63] x[1223,64] x[1223,65]
 x[1223,66] x[1223,67] x[1223,68] x[1223,69] x[1223,70] x[1223,71]
 x[1223,72] x[1223,73] x[1223,74] x[1223,75] x[1223,76] x[1223,77]
 x[1223,78] x[1223,79] x[1223,80] x[1223,81] x[1223,82] x[1223,83]
 x[1223,84] x[1223,85] x[1223,86] x[1223,87] x[1223,88] x[1223,89]
 x[1223,90] x[1223,91] x[1223,92] x[1223,93] x[1223,94] x[1223,95]
 x[1223,96] x[1223,97] x[1223,98] x[1223,99] x[1223,100] x[1223,101]
 x[1223,102] x[1223,103] x[1223,104]
End
